n = 13;
budget = 800000;
groceries = [|1380,162,156,12,159,1666|2107,147,175,91,192,1227|1370,130,55,70,164,1836|1428,77,217,28,107,1677|1980,5,355,60,69,3381|3560,100,610,80,62,2721|1695,35,220,75,164,2970|1635,15,315,35,190,1872|5896,24,280,520,188,3309|830,80,60,30,99,1524|5712,80,16,592,91,3399|1888,8,176,128,135,3192|1818,30,114,138,182,1614|];
requirements = [|23440,27135|608,809|3200,3520|912,1091|];